5
30 50 60 0 50 70
40 80 20 20 0 0
40 50 20 0 0 70
20 10 70 0 0 0
10 10 30 0 100 70
5 1 3 4 2 
4 2 3 1 5 
3 1 2 5 4 
5
30 50 60 20 0 90
40 80 20 0 0 70
40 50 20 40 0 70
20 10 70 0 0 0
10 10 30 0 80 70
5 2 3 4 1 
4 2 3 1 5 
3 2 1 5 4 
